% seed = 1977713

mint = 30;
% maxt = 89;

nActs = 22;
dur = [0,8,2,6,2,3,9,4,2,5,5,6,1,6,5,3,9,3,2,3,5,0];

nSkills = 4;
sreq = [| 0,0,0,0,
	| 2,1,1,1,
	| 1,1,3,2,
	| 1,3,2,2,
	| 2,2,3,1,
	| 3,2,3,1,
	| 2,1,1,3,
	| 1,1,3,1,
	| 3,2,2,2,
	| 1,1,2,2,
	| 2,2,1,3,
	| 3,3,1,3,
	| 3,2,1,2,
	| 1,3,2,1,
	| 1,1,3,3,
	| 1,1,2,2,
	| 3,3,2,1,
	| 1,2,2,3,
	| 3,3,3,1,
	| 1,2,3,3,
	| 3,3,3,3,
	| 0,0,0,0, |];

nResources = 25;
mastery = [| true,false,true,true,
	| false,false,false,true,
	| true,true,false,true,
	| false,true,true,true,
	| true,false,true,false,
	| false,false,true,false,
	| true,false,false,true,
	| false,true,true,true,
	| true,false,false,true,
	| true,false,false,false,
	| true,true,false,true,
	| true,true,true,false,
	| false,false,true,true,
	| false,false,false,true,
	| false,true,false,true,
	| false,true,true,true,
	| true,true,false,false,
	| false,true,true,true,
	| false,true,true,true,
	| false,true,false,false,
	| false,false,true,false,
	| false,true,true,false,
	| true,true,false,true,
	| false,false,true,false,
	| false,false,false,true, |];

nPrecs = 43;
pred = [1,1,1,2,2,2,3,3,3,4,4,4,5,5,5,6,6,6,7,7,7,8,8,8,9,10,10,10,11,11,11,12,13,14,14,15,16,17,17,18,19,20,21];
succ = [2,3,4,10,5,6,18,12,10,5,6,7,17,11,13,17,9,14,19,14,8,9,21,16,13,17,15,16,18,19,15,19,15,18,16,20,20,20,21,21,22,22,22];

nUnrels = 94;
unpred = [2,2,2,2,2,3,3,3,3,3,3,3,3,3,4,4,5,5,5,5,5,5,5,5,6,6,6,6,6,6,7,7,7,7,8,8,8,8,8,8,8,9,9,9,9,9,9,9,9,9,10,10,10,10,10,10,11,11,11,11,11,12,12,12,12,12,12,12,12,13,13,13,13,13,13,14,14,14,15,15,15,15,15,16,16,16,16,17,17,18,18,19,19,20];
unsucc = [3,4,7,8,12,4,5,6,7,8,9,11,13,14,10,12,6,7,8,9,10,12,14,16,7,8,10,11,12,19,10,11,12,17,10,11,12,14,17,18,19,10,11,12,14,16,17,18,19,21,11,12,13,14,18,19,12,13,14,16,17,13,14,15,16,17,18,20,21,14,16,17,18,19,21,15,17,19,16,17,18,19,21,17,18,19,21,18,19,19,20,20,21,21];

USEFUL_RES = [{},
	{1,2,3,4,5,6,7,8,9,10,11,12,13,14,15,16,17,18,19,20,21,22,23,24,25},
	{1,2,3,4,5,6,7,8,9,10,11,12,13,14,15,16,17,18,19,20,21,22,23,24,25},
	{1,2,3,4,5,6,7,8,9,10,11,12,13,14,15,16,17,18,19,20,21,22,23,24,25},
	{1,2,3,4,5,6,7,8,9,10,11,12,13,14,15,16,17,18,19,20,21,22,23,24,25},
	{1,2,3,4,5,6,7,8,9,10,11,12,13,14,15,16,17,18,19,20,21,22,23,24,25},
	{1,2,3,4,5,6,7,8,9,10,11,12,13,14,15,16,17,18,19,20,21,22,23,24,25},
	{1,2,3,4,5,6,7,8,9,10,11,12,13,14,15,16,17,18,19,20,21,22,23,24,25},
	{1,2,3,4,5,6,7,8,9,10,11,12,13,14,15,16,17,18,19,20,21,22,23,24,25},
	{1,2,3,4,5,6,7,8,9,10,11,12,13,14,15,16,17,18,19,20,21,22,23,24,25},
	{1,2,3,4,5,6,7,8,9,10,11,12,13,14,15,16,17,18,19,20,21,22,23,24,25},
	{1,2,3,4,5,6,7,8,9,10,11,12,13,14,15,16,17,18,19,20,21,22,23,24,25},
	{1,2,3,4,5,6,7,8,9,10,11,12,13,14,15,16,17,18,19,20,21,22,23,24,25},
	{1,2,3,4,5,6,7,8,9,10,11,12,13,14,15,16,17,18,19,20,21,22,23,24,25},
	{1,2,3,4,5,6,7,8,9,10,11,12,13,14,15,16,17,18,19,20,21,22,23,24,25},
	{1,2,3,4,5,6,7,8,9,10,11,12,13,14,15,16,17,18,19,20,21,22,23,24,25},
	{1,2,3,4,5,6,7,8,9,10,11,12,13,14,15,16,17,18,19,20,21,22,23,24,25},
	{1,2,3,4,5,6,7,8,9,10,11,12,13,14,15,16,17,18,19,20,21,22,23,24,25},
	{1,2,3,4,5,6,7,8,9,10,11,12,13,14,15,16,17,18,19,20,21,22,23,24,25},
	{1,2,3,4,5,6,7,8,9,10,11,12,13,14,15,16,17,18,19,20,21,22,23,24,25},
	{1,2,3,4,5,6,7,8,9,10,11,12,13,14,15,16,17,18,19,20,21,22,23,24,25},
	{}];

POTENTIAL_ACT = [{2,3,4,5,6,7,8,9,10,11,12,13,14,15,16,17,18,19,20,21},
	{2,3,4,5,6,7,8,9,10,11,12,13,14,15,16,17,18,19,20,21},
	{2,3,4,5,6,7,8,9,10,11,12,13,14,15,16,17,18,19,20,21},
	{2,3,4,5,6,7,8,9,10,11,12,13,14,15,16,17,18,19,20,21},
	{2,3,4,5,6,7,8,9,10,11,12,13,14,15,16,17,18,19,20,21},
	{2,3,4,5,6,7,8,9,10,11,12,13,14,15,16,17,18,19,20,21},
	{2,3,4,5,6,7,8,9,10,11,12,13,14,15,16,17,18,19,20,21},
	{2,3,4,5,6,7,8,9,10,11,12,13,14,15,16,17,18,19,20,21},
	{2,3,4,5,6,7,8,9,10,11,12,13,14,15,16,17,18,19,20,21},
	{2,3,4,5,6,7,8,9,10,11,12,13,14,15,16,17,18,19,20,21},
	{2,3,4,5,6,7,8,9,10,11,12,13,14,15,16,17,18,19,20,21},
	{2,3,4,5,6,7,8,9,10,11,12,13,14,15,16,17,18,19,20,21},
	{2,3,4,5,6,7,8,9,10,11,12,13,14,15,16,17,18,19,20,21},
	{2,3,4,5,6,7,8,9,10,11,12,13,14,15,16,17,18,19,20,21},
	{2,3,4,5,6,7,8,9,10,11,12,13,14,15,16,17,18,19,20,21},
	{2,3,4,5,6,7,8,9,10,11,12,13,14,15,16,17,18,19,20,21},
	{2,3,4,5,6,7,8,9,10,11,12,13,14,15,16,17,18,19,20,21},
	{2,3,4,5,6,7,8,9,10,11,12,13,14,15,16,17,18,19,20,21},
	{2,3,4,5,6,7,8,9,10,11,12,13,14,15,16,17,18,19,20,21},
	{2,3,4,5,6,7,8,9,10,11,12,13,14,15,16,17,18,19,20,21},
	{2,3,4,5,6,7,8,9,10,11,12,13,14,15,16,17,18,19,20,21},
	{2,3,4,5,6,7,8,9,10,11,12,13,14,15,16,17,18,19,20,21},
	{2,3,4,5,6,7,8,9,10,11,12,13,14,15,16,17,18,19,20,21},
	{2,3,4,5,6,7,8,9,10,11,12,13,14,15,16,17,18,19,20,21},
	{2,3,4,5,6,7,8,9,10,11,12,13,14,15,16,17,18,19,20,21}];
